RAW/CMTT/fspd/CMT3T.vrp_seed-1.out
798.0720591	0.587	33.316
