RAW/CMTT/fspd/CMT3T.vrp_seed-1.sol
Route #1: 52 88 7 82 48 47 19 11 62 10 31 27
Route #2: 58 2 57 41 22 74 75 56 23 67 39 25 55 26
Route #3: 94 95 97 92 98 37 100 91 85 93 59 96 6
Route #4: 28 12 80 68 3 29 24 54 4 72 73 21 40 53
Route #5: 13 87 42 15 43 14 44 38 86 16 61 99
Route #6: 89 18 83 60 5 84 17 45 8 46 36 49 64 63 90 32 30 70 1 69
Route #7: 76 77 79 78 34 35 71 65 66 20 51 9 81 33 50
Cost 798.072059